
Gurobi 8.0.1 (linux64, Python) logging started Thu Mar 21 00:46:49 2019

Academic license - for non-commercial use only

Gurobi 8.0.1 (linux64, Python) logging started Thu Mar 21 00:47:19 2019

Academic license - for non-commercial use only

Gurobi 8.0.1 (linux64, Python) logging started Thu Mar 21 00:48:24 2019

Academic license - for non-commercial use only

Gurobi 8.0.1 (linux64, Python) logging started Thu Mar 21 00:49:28 2019

Academic license - for non-commercial use only

Gurobi 8.0.1 (linux64, Python) logging started Thu Mar 21 00:50:41 2019

Academic license - for non-commercial use only

Gurobi 8.0.1 (linux64, Python) logging started Thu Mar 21 00:51:51 2019

Academic license - for non-commercial use only

Gurobi 8.0.1 (linux64, Python) logging started Thu Mar 21 00:55:25 2019

Academic license - for non-commercial use only

Gurobi 8.0.1 (linux64, Python) logging started Thu Mar 21 01:32:42 2019

Academic license - for non-commercial use only

Gurobi 8.0.1 (linux64, Python) logging started Thu Mar 21 01:40:20 2019

Academic license - for non-commercial use only

Gurobi 8.0.1 (linux64, Python) logging started Thu Mar 21 01:41:06 2019

Academic license - for non-commercial use only

Gurobi 8.0.1 (linux64, Python) logging started Thu Mar 21 01:44:36 2019

Academic license - for non-commercial use only

Gurobi 8.0.1 (linux64, Python) logging started Thu Mar 21 01:45:07 2019

Academic license - for non-commercial use only

Gurobi 8.0.1 (linux64, Python) logging started Thu Mar 21 01:46:22 2019

Academic license - for non-commercial use only

Gurobi 8.0.1 (linux64, Python) logging started Thu Mar 21 01:46:48 2019

Academic license - for non-commercial use only

Gurobi 8.0.1 (linux64, Python) logging started Thu Mar 21 01:47:11 2019

Academic license - for non-commercial use only

Gurobi 8.0.1 (linux64, Python) logging started Thu Mar 21 01:47:44 2019

Academic license - for non-commercial use only

Gurobi 8.0.1 (linux64, Python) logging started Thu Mar 21 01:50:43 2019

Academic license - for non-commercial use only

Gurobi 8.0.1 (linux64, Python) logging started Thu Mar 21 01:51:30 2019

Academic license - for non-commercial use only

Gurobi 8.0.1 (linux64, Python) logging started Thu Mar 21 01:52:39 2019

Academic license - for non-commercial use only

Gurobi 8.0.1 (linux64, Python) logging started Thu Mar 21 01:55:47 2019

Academic license - for non-commercial use only

Gurobi 8.0.1 (linux64, Python) logging started Thu Mar 21 01:57:18 2019

Academic license - for non-commercial use only

Gurobi 8.0.1 (linux64, Python) logging started Thu Mar 21 01:57:58 2019

Academic license - for non-commercial use only

Gurobi 8.0.1 (linux64, Python) logging started Thu Mar 21 02:01:05 2019

Academic license - for non-commercial use only

Gurobi 8.0.1 (linux64, Python) logging started Thu Mar 21 02:19:39 2019

Academic license - for non-commercial use only

Gurobi 8.0.1 (linux64, Python) logging started Thu Mar 21 02:20:21 2019

Academic license - for non-commercial use only

Gurobi 8.0.1 (linux64, Python) logging started Thu Mar 21 02:21:42 2019

Academic license - for non-commercial use only

Gurobi 8.0.1 (linux64, Python) logging started Thu Mar 21 02:32:43 2019

Academic license - for non-commercial use only

Gurobi 8.0.1 (linux64, Python) logging started Thu Mar 21 02:37:10 2019

Academic license - for non-commercial use only

Gurobi 8.0.1 (linux64, Python) logging started Thu Mar 21 02:38:36 2019

Academic license - for non-commercial use only

Gurobi 8.0.1 (linux64, Python) logging started Thu Mar 21 02:52:33 2019

Academic license - for non-commercial use only

Gurobi 8.0.1 (linux64, Python) logging started Thu Mar 21 02:52:50 2019

Academic license - for non-commercial use only

Gurobi 8.0.1 (linux64, Python) logging started Thu Mar 21 02:58:14 2019

Academic license - for non-commercial use only

Gurobi 8.0.1 (linux64, Python) logging started Thu Mar 21 03:05:36 2019

Academic license - for non-commercial use only

Gurobi 8.0.1 (linux64, Python) logging started Thu Mar 21 12:23:37 2019

Academic license - for non-commercial use only

Gurobi 8.0.1 (linux64, Python) logging started Thu Mar 21 12:33:47 2019

Academic license - for non-commercial use only
